100 1475
1 8
1 12
1 15
1 18
1 19
1 23
1 27
1 28
1 32
1 38
1 39
1 44
1 46
1 48
1 50
1 53
1 57
1 68
1 72
1 73
1 74
1 75
1 80
1 87
1 88
1 89
1 91
1 98
1 100
2 6
2 9
2 11
2 13
2 17
2 25
2 28
2 32
2 33
2 34
2 36
2 37
2 39
2 45
2 49
2 56
2 61
2 63
2 68
2 71
2 76
2 77
2 83
2 88
2 92
2 94
2 96
2 99
3 10
3 12
3 13
3 15
3 17
3 24
3 25
3 26
3 39
3 43
3 44
3 47
3 48
3 52
3 55
3 57
3 61
3 65
3 67
3 69
3 70
3 73
3 74
3 75
3 77
3 80
3 84
3 85
3 86
3 91
3 94
4 9
4 15
4 18
4 20
4 31
4 35
4 36
4 40
4 49
4 51
4 62
4 63
4 64
4 66
4 71
4 82
4 88
4 89
4 91
4 96
4 100
5 7
5 8
5 10
5 15
5 17
5 18
5 19
5 22
5 24
5 25
5 35
5 36
5 37
5 38
5 44
5 48
5 60
5 62
5 65
5 68
5 75
5 78
5 79
5 81
5 83
5 86
5 87
5 94
5 99
6 13
6 15
6 19
6 20
6 24
6 27
6 28
6 30
6 32
6 34
6 39
6 40
6 42
6 47
6 48
6 49
6 52
6 53
6 60
6 65
6 68
6 70
6 72
6 73
6 75
6 77
6 78
6 81
6 88
6 89
6 94
6 100
7 11
7 18
7 20
7 22
7 28
7 30
7 32
7 37
7 39
7 42
7 43
7 49
7 52
7 54
7 56
7 62
7 63
7 66
7 70
7 72
7 73
7 74
7 75
7 76
7 81
7 83
7 92
7 93
7 97
7 98
8 13
8 21
8 25
8 29
8 42
8 48
8 51
8 53
8 60
8 61
8 64
8 65
8 67
8 69
8 74
8 77
8 84
8 85
8 86
8 87
8 88
8 92
9 10
9 11
9 18
9 19
9 20
9 25
9 26
9 27
9 30
9 33
9 41
9 42
9 47
9 53
9 57
9 58
9 62
9 63
9 65
9 69
9 71
9 73
9 74
9 75
9 77
9 80
9 88
9 91
9 92
9 99
10 11
10 12
10 13
10 22
10 26
10 27
10 28
10 29
10 30
10 32
10 35
10 38
10 40
10 44
10 47
10 51
10 54
10 55
10 57
10 68
10 71
10 73
10 80
10 81
10 83
10 87
10 88
10 92
11 12
11 13
11 14
11 22
11 23
11 27
11 32
11 36
11 42
11 46
11 47
11 48
11 49
11 56
11 57
11 60
11 65
11 73
11 75
11 76
11 78
11 83
11 86
11 87
11 90
11 94
11 95
11 98
11 99
11 100
12 18
12 21
12 28
12 35
12 36
12 38
12 40
12 45
12 52
12 56
12 57
12 58
12 63
12 65
12 67
12 72
12 74
12 76
12 77
12 82
12 84
12 87
12 90
13 14
13 18
13 21
13 22
13 24
13 26
13 31
13 32
13 35
13 39
13 44
13 46
13 50
13 51
13 52
13 55
13 57
13 59
13 61
13 66
13 75
13 78
13 81
13 85
13 88
13 90
13 93
13 94
14 15
14 20
14 22
14 23
14 28
14 36
14 42
14 45
14 46
14 50
14 51
14 53
14 54
14 57
14 58
14 60
14 62
14 63
14 64
14 67
14 72
14 75
14 76
14 79
14 80
14 81
14 82
14 83
14 90
14 91
14 96
14 97
15 17
15 18
15 19
15 29
15 36
15 38
15 39
15 41
15 44
15 52
15 53
15 54
15 55
15 56
15 59
15 66
15 74
15 83
15 87
16 20
16 21
16 32
16 44
16 45
16 53
16 54
16 57
16 59
16 60
16 65
16 69
16 74
16 75
16 76
16 77
16 79
16 85
16 89
16 91
16 92
16 96
16 98
17 18
17 20
17 21
17 22
17 29
17 30
17 31
17 37
17 44
17 47
17 50
17 52
17 56
17 61
17 65
17 67
17 70
17 71
17 72
17 74
17 77
17 82
17 85
17 93
17 95
17 98
17 99
17 100
18 23
18 24
18 26
18 27
18 34
18 38
18 42
18 43
18 44
18 46
18 53
18 64
18 65
18 69
18 71
18 75
18 79
18 80
18 81
18 82
18 84
18 88
18 89
18 90
18 91
18 96
18 100
19 28
19 31
19 32
19 33
19 34
19 38
19 43
19 44
19 45
19 46
19 49
19 54
19 58
19 69
19 71
19 74
19 75
19 78
19 80
19 86
19 89
19 90
19 94
20 24
20 29
20 35
20 42
20 43
20 46
20 50
20 52
20 53
20 55
20 58
20 59
20 60
20 65
20 70
20 72
20 74
20 80
20 81
20 85
20 89
20 95
21 22
21 33
21 36
21 42
21 44
21 52
21 54
21 58
21 60
21 66
21 70
21 73
21 74
21 75
21 80
21 82
21 84
21 88
21 89
21 90
21 92
21 93
21 95
21 98
22 24
22 26
22 34
22 36
22 37
22 42
22 43
22 49
22 51
22 60
22 63
22 66
22 68
22 76
22 77
22 83
22 85
22 87
22 89
22 90
22 95
22 96
22 100
23 26
23 27
23 32
23 36
23 39
23 40
23 41
23 42
23 50
23 53
23 56
23 60
23 64
23 65
23 66
23 67
23 68
23 74
23 77
23 79
23 81
23 83
23 84
23 85
23 95
23 99
24 34
24 47
24 48
24 49
24 51
24 53
24 57
24 58
24 59
24 60
24 62
24 63
24 66
24 71
24 72
24 75
24 76
24 78
24 82
24 86
24 91
24 92
24 93
25 30
25 32
25 46
25 48
25 49
25 53
25 54
25 56
25 58
25 61
25 65
25 67
25 68
25 70
25 71
25 87
25 89
25 93
25 95
26 28
26 30
26 34
26 35
26 37
26 42
26 52
26 53
26 60
26 69
26 74
26 77
26 83
26 86
26 89
26 90
26 91
26 92
26 93
26 97
26 99
27 29
27 30
27 32
27 34
27 36
27 38
27 42
27 43
27 51
27 57
27 58
27 63
27 66
27 73
27 76
27 77
27 78
27 81
27 88
27 99
28 29
28 33
28 35
28 36
28 38
28 47
28 49
28 50
28 52
28 53
28 54
28 65
28 68
28 73
28 77
28 80
28 81
28 89
28 92
28 93
28 94
28 95
28 97
28 98
28 99
28 100
29 31
29 32
29 38
29 39
29 41
29 42
29 48
29 50
29 51
29 52
29 56
29 57
29 59
29 65
29 67
29 71
29 72
29 73
29 75
29 78
29 81
29 82
29 88
29 90
29 93
30 31
30 36
30 39
30 43
30 45
30 47
30 49
30 50
30 57
30 58
30 63
30 66
30 73
30 74
30 75
30 79
30 93
30 97
31 37
31 39
31 42
31 47
31 49
31 54
31 61
31 63
31 68
31 71
31 80
31 83
31 91
31 94
32 39
32 43
32 45
32 47
32 54
32 60
32 63
32 67
32 68
32 74
32 77
32 86
32 91
32 93
32 94
32 96
32 97
32 100
33 36
33 37
33 40
33 48
33 50
33 52
33 63
33 65
33 68
33 69
33 78
33 80
33 85
33 90
33 92
33 95
33 96
33 97
33 98
33 100
34 35
34 38
34 40
34 49
34 50
34 55
34 67
34 71
34 79
34 83
34 85
34 86
34 88
34 93
34 95
34 97
34 98
35 37
35 41
35 42
35 45
35 48
35 51
35 53
35 55
35 56
35 60
35 72
35 74
35 76
35 78
35 80
35 84
35 86
35 100
36 39
36 41
36 47
36 50
36 64
36 68
36 71
36 79
36 81
36 89
36 91
36 99
37 45
37 46
37 53
37 58
37 64
37 65
37 72
37 73
37 74
37 76
37 77
37 81
37 83
37 84
37 85
37 90
37 92
37 93
37 94
37 97
37 99
37 100
38 55
38 60
38 63
38 65
38 67
38 71
38 75
38 76
38 91
38 92
38 95
38 96
38 98
39 47
39 58
39 60
39 62
39 66
39 67
39 75
39 79
39 80
39 81
39 83
39 85
39 87
39 88
39 92
39 93
40 42
40 44
40 49
40 54
40 57
40 59
40 60
40 63
40 70
40 71
40 76
40 79
40 85
40 86
40 87
40 88
40 91
40 92
40 95
40 96
40 97
40 99
41 46
41 50
41 53
41 54
41 56
41 62
41 63
41 65
41 67
41 70
41 75
41 80
41 83
41 84
41 85
41 86
41 90
41 91
41 93
41 96
41 98
42 47
42 53
42 56
42 59
42 61
42 66
42 67
42 68
42 81
42 83
42 84
42 87
42 88
42 90
42 94
42 95
42 100
43 51
43 53
43 54
43 58
43 61
43 64
43 69
43 74
43 76
43 77
43 79
43 81
43 86
43 87
43 91
43 92
43 93
43 98
43 99
43 100
44 51
44 56
44 57
44 60
44 64
44 65
44 67
44 73
44 75
44 81
44 86
44 87
44 88
44 97
45 47
45 51
45 52
45 54
45 56
45 58
45 59
45 61
45 62
45 66
45 69
45 80
45 83
45 84
45 85
45 87
45 90
45 94
45 99
46 48
46 51
46 60
46 66
46 68
46 69
46 75
46 77
46 82
46 84
46 87
46 88
46 92
46 94
46 96
46 99
47 51
47 52
47 54
47 55
47 58
47 59
47 63
47 67
47 69
47 74
47 81
47 82
47 85
47 90
47 93
47 96
47 97
48 49
48 50
48 56
48 57
48 63
48 67
48 69
48 73
48 76
48 80
48 81
48 83
48 84
48 85
48 91
48 97
49 51
49 59
49 63
49 64
49 66
49 67
49 69
49 76
49 80
49 81
49 82
49 84
49 85
49 86
49 90
49 96
49 97
49 98
49 100
50 54
50 60
50 62
50 64
50 68
50 70
50 75
50 77
50 78
50 80
50 86
50 87
50 95
50 98
51 52
51 55
51 59
51 65
51 66
51 68
51 72
51 76
51 80
51 82
51 86
51 88
51 90
51 96
51 100
52 56
52 57
52 59
52 60
52 75
52 77
52 78
52 86
52 87
52 88
52 93
52 97
53 58
53 59
53 61
53 63
53 67
53 74
53 77
53 78
53 81
53 82
53 83
53 84
53 85
53 90
53 91
53 96
54 55
54 64
54 67
54 79
54 81
54 83
54 86
54 87
54 89
54 91
54 93
54 94
54 95
54 98
54 100
55 63
55 70
55 71
55 75
55 77
55 79
55 80
55 87
55 91
55 93
55 94
55 95
55 99
56 58
56 59
56 60
56 61
56 62
56 63
56 67
56 69
56 70
56 74
56 75
56 76
56 77
56 80
56 85
56 88
56 89
56 94
57 62
57 68
57 70
57 71
57 72
57 73
57 74
57 78
57 88
57 91
57 92
57 95
57 97
57 98
57 100
58 60
58 61
58 63
58 71
58 72
58 75
58 77
58 79
58 81
58 87
58 88
58 90
58 92
58 94
58 95
58 98
59 60
59 67
59 68
59 69
59 70
59 73
59 75
59 76
59 82
59 84
59 86
59 91
59 93
59 94
59 96
59 100
60 61
60 62
60 65
60 69
60 80
60 82
60 83
60 84
60 85
60 86
60 89
60 90
60 91
60 95
60 100
61 62
61 71
61 75
61 81
61 90
61 93
61 96
61 98
61 99
62 64
62 67
62 74
62 76
62 83
62 86
62 94
62 98
62 100
63 65
63 66
63 68
63 71
63 75
63 79
63 83
63 84
63 87
63 91
63 92
63 94
63 98
64 65
64 68
64 70
64 71
64 77
64 81
64 85
64 87
64 88
64 89
64 94
64 98
64 99
65 74
65 76
65 78
65 84
65 86
65 88
65 91
65 93
65 96
66 72
66 76
66 85
66 91
66 92
66 94
66 100
67 77
67 78
67 81
67 89
67 96
67 98
67 99
68 74
68 78
68 81
68 83
68 84
68 95
68 98
69 71
69 74
69 75
69 80
69 81
69 85
69 86
69 88
69 94
70 74
70 84
70 85
70 89
70 90
70 91
70 92
70 95
70 99
71 72
71 79
71 83
71 88
71 91
71 93
71 95
72 74
72 75
72 76
72 78
72 80
72 83
72 84
72 87
72 89
72 97
72 100
73 76
73 77
73 78
73 79
73 92
73 95
73 99
73 100
74 75
74 79
74 81
74 82
74 83
74 87
74 88
74 91
74 94
74 99
75 77
75 78
75 81
75 89
75 93
75 96
76 77
76 82
76 83
76 84
76 86
76 91
76 100
77 79
77 80
77 82
77 88
77 89
77 95
77 96
77 98
77 99
78 79
78 80
78 81
78 82
78 83
78 85
78 90
78 92
78 93
78 96
78 98
78 100
79 84
79 93
79 96
80 85
80 86
80 88
80 89
80 90
81 90
81 94
81 96
82 91
82 97
82 100
83 86
83 92
83 99
84 90
84 95
84 97
84 99
85 95
85 97
86 92
86 93
86 99
86 100
87 94
88 90
88 96
89 90
89 95
89 99
90 92
90 93
90 96
90 98
91 92
91 95
91 96
92 94
92 95
92 99
93 96
93 97
93 98
93 100
94 97
94 98
95 99
95 100
96 97
96 98
96 100
97 99
98 99
99 100
